NAME : rnd28_50.tsp.tsp.opt.tour
TYPE : TOUR
DIMENSION : 50
TOUR_SECTION
1
15
34
6
4
21
22
31
47
32
27
7
50
28
5
45
38
10
18
33
3
20
25
35
39
9
49
23
42
13
37
48
44
26
11
29
36
30
41
43
2
19
46
17
16
40
14
12
24
8
-1